SECTION Graph
Nodes 632
Edges 1087
E 1 2 5
E 2 3 5
E 3 4 5
E 4 5 5
E 5 6 5
E 6 7 5
E 7 8 5
E 8 9 5
E 10 11 5
E 11 12 5
E 12 13 5
E 14 15 5
E 16 17 5
E 17 18 5
E 19 20 5
E 20 21 5
E 21 22 5
E 22 23 5
E 23 24 5
E 24 25 5
E 1 27 13
E 2 28 13
E 3 29 13
E 4 30 13
E 5 31 13
E 6 32 13
E 7 33 13
E 8 34 13
E 9 35 13
E 10 39 13
E 11 40 13
E 12 41 13
E 13 42 13
E 14 43 13
E 15 44 13
E 16 46 13
E 17 47 13
E 18 48 13
E 19 49 13
E 20 50 13
E 22 52 13
E 23 53 13
E 24 54 13
E 25 55 13
E 26 56 13
E 27 28 5
E 28 29 5
E 29 30 5
E 30 31 5
E 31 32 5
E 32 33 5
E 33 34 5
E 34 35 5
E 35 36 5
E 36 37 5
E 37 38 5
E 38 39 5
E 39 40 5
E 40 41 5
E 41 42 5
E 43 44 5
E 44 45 5
E 45 46 5
E 46 47 5
E 47 48 5
E 49 50 5
E 50 51 5
E 51 52 5
E 52 53 5
E 53 54 5
E 54 55 5
E 27 57 13
E 28 58 13
E 29 59 13
E 30 60 13
E 31 61 13
E 32 62 13
E 33 63 13
E 34 64 13
E 35 65 13
E 36 66 13
E 37 67 13
E 38 68 13
E 39 69 13
E 40 70 13
E 41 71 13
E 42 72 13
E 43 74 13
E 44 75 13
E 45 76 13
E 46 77 13
E 47 78 13
E 48 79 13
E 49 81 13
E 50 82 13
E 51 83 13
E 52 84 13
E 53 85 13
E 54 86 13
E 55 87 13
E 56 89 13
E 57 58 5
E 58 59 5
E 59 60 5
E 60 61 5
E 61 62 5
E 62 63 5
E 63 64 5
E 64 65 5
E 65 66 5
E 66 67 5
E 67 68 5
E 68 69 5
E 69 70 5
E 70 71 5
E 71 72 5
E 72 73 5
E 73 74 5
E 74 75 5
E 75 76 5
E 76 77 5
E 77 78 5
E 78 79 5
E 79 80 5
E 80 81 5
E 81 82 5
E 82 83 5
E 83 84 5
E 84 85 5
E 85 86 5
E 86 87 5
E 87 88 5
E 88 89 5
E 57 90 13
E 58 91 13
E 59 92 13
E 60 93 13
E 61 94 13
E 62 95 13
E 63 96 13
E 66 99 13
E 69 102 13
E 72 105 13
E 73 106 13
E 74 107 13
E 75 108 13
E 76 109 13
E 78 111 13
E 79 112 13
E 80 113 13
E 81 114 13
E 82 115 13
E 84 116 13
E 85 117 13
E 86 118 13
E 87 119 13
E 88 120 13
E 89 121 13
E 90 91 5
E 91 92 5
E 92 93 5
E 93 94 5
E 94 95 5
E 95 96 5
E 96 97 5
E 97 98 5
E 98 99 5
E 99 100 5
E 100 101 5
E 101 102 5
E 102 103 5
E 103 104 5
E 104 105 5
E 105 106 5
E 106 107 5
E 107 108 5
E 108 109 5
E 109 110 5
E 110 111 5
E 111 112 5
E 112 113 5
E 113 114 5
E 114 115 5
E 116 117 5
E 117 118 5
E 118 119 5
E 119 120 5
E 120 121 5
E 90 122 13
E 91 123 13
E 92 124 13
E 93 125 13
E 94 126 13
E 95 127 13
E 98 130 13
E 101 133 13
E 103 134 13
E 104 135 13
E 106 136 13
E 107 137 13
E 109 138 13
E 110 139 13
E 111 140 13
E 112 141 13
E 114 143 13
E 115 144 13
E 116 145 13
E 117 146 13
E 119 148 13
E 120 149 13
E 121 150 13
E 122 123 5
E 123 124 5
E 124 125 5
E 125 126 5
E 126 127 5
E 127 128 5
E 128 129 5
E 129 130 5
E 130 131 5
E 131 132 5
E 132 133 5
E 134 135 5
E 136 137 5
E 138 139 5
E 139 140 5
E 140 141 5
E 141 142 5
E 142 143 5
E 143 144 5
E 145 146 5
E 146 147 5
E 147 148 5
E 148 149 5
E 149 150 5
E 122 151 13
E 123 152 13
E 124 153 13
E 125 154 13
E 126 155 13
E 129 158 13
E 132 161 13
E 133 162 13
E 134 163 13
E 135 164 13
E 136 165 13
E 137 166 13
E 138 167 13
E 139 168 13
E 140 169 13
E 141 170 13
E 142 171 13
E 143 172 13
E 144 173 13
E 145 175 13
E 146 176 13
E 147 177 13
E 148 178 13
E 149 179 13
E 150 180 13
E 151 152 5
E 152 153 5
E 153 154 5
E 154 155 5
E 155 156 5
E 156 157 5
E 157 158 5
E 158 159 5
E 159 160 5
E 160 161 5
E 161 162 5
E 163 164 5
E 165 166 5
E 167 168 5
E 168 169 5
E 169 170 5
E 170 171 5
E 171 172 5
E 172 173 5
E 173 174 5
E 174 175 5
E 175 176 5
E 176 177 5
E 177 178 5
E 178 179 5
E 179 180 5
E 151 181 13
E 152 182 13
E 153 183 13
E 154 184 13
E 155 185 13
E 156 186 13
E 157 187 13
E 158 188 13
E 159 189 13
E 161 190 13
E 162 191 13
E 163 193 13
E 164 194 13
E 165 196 13
E 166 197 13
E 167 199 13
E 168 200 13
E 169 201 13
E 172 204 13
E 173 205 13
E 174 206 13
E 175 207 13
E 176 208 13
E 179 211 13
E 180 212 13
E 181 182 5
E 182 183 5
E 183 184 5
E 184 185 5
E 185 186 5
E 186 187 5
E 187 188 5
E 188 189 5
E 190 191 5
E 191 192 5
E 192 193 5
E 193 194 5
E 194 195 5
E 195 196 5
E 196 197 5
E 197 198 5
E 198 199 5
E 199 200 5
E 200 201 5
E 201 202 5
E 202 203 5
E 203 204 5
E 204 205 5
E 205 206 5
E 206 207 5
E 207 208 5
E 208 209 5
E 209 210 5
E 210 211 5
E 211 212 5
E 181 213 13
E 182 214 13
E 183 215 13
E 184 216 13
E 185 217 13
E 186 218 13
E 187 219 13
E 188 220 13
E 189 221 13
E 190 222 13
E 191 223 13
E 192 224 13
E 193 225 13
E 194 226 13
E 195 227 13
E 196 228 13
E 197 229 13
E 198 230 13
E 199 231 13
E 200 232 13
E 201 233 13
E 202 234 13
E 204 235 13
E 206 236 13
E 207 237 13
E 208 238 13
E 209 239 13
E 210 240 13
E 212 241 13
E 213 214 5
E 214 215 5
E 215 216 5
E 216 217 5
E 217 218 5
E 218 219 5
E 219 220 5
E 220 221 5
E 222 223 5
E 223 224 5
E 224 225 5
E 225 226 5
E 226 227 5
E 227 228 5
E 228 229 5
E 229 230 5
E 230 231 5
E 231 232 5
E 232 233 5
E 233 234 5
E 236 237 5
E 237 238 5
E 238 239 5
E 239 240 5
E 213 242 13
E 214 243 13
E 215 244 13
E 216 245 13
E 217 246 13
E 218 247 13
E 219 248 13
E 220 249 13
E 221 250 13
E 222 252 13
E 223 253 13
E 226 256 13
E 227 257 13
E 228 258 13
E 232 259 13
E 233 260 13
E 234 261 13
E 235 262 13
E 236 263 13
E 237 264 13
E 238 265 13
E 239 266 13
E 240 267 13
E 241 268 13
E 242 243 5
E 243 244 5
E 244 245 5
E 245 246 5
E 246 247 5
E 247 248 5
E 248 249 5
E 249 250 5
E 250 251 5
E 251 252 5
E 252 253 5
E 253 254 5
E 254 255 5
E 255 256 5
E 256 257 5
E 257 258 5
E 259 260 5
E 260 261 5
E 263 264 5
E 264 265 5
E 265 266 5
E 266 267 5
E 242 269 13
E 243 270 13
E 244 271 13
E 245 272 13
E 246 273 13
E 247 274 13
E 248 275 13
E 249 276 13
E 250 277 13
E 251 278 13
E 252 279 13
E 254 280 13
E 255 281 13
E 256 282 13
E 258 283 13
E 259 287 13
E 260 288 13
E 261 289 13
E 262 291 13
E 263 293 13
E 264 294 13
E 265 295 13
E 266 296 13
E 267 297 13
E 268 299 13
E 269 270 5
E 270 271 5
E 271 272 5
E 272 273 5
E 273 274 5
E 274 275 5
E 275 276 5
E 276 277 5
E 277 278 5
E 278 279 5
E 280 281 5
E 281 282 5
E 283 284 5
E 284 285 5
E 285 286 5
E 286 287 5
E 287 288 5
E 288 289 5
E 289 290 5
E 290 291 5
E 291 292 5
E 292 293 5
E 293 294 5
E 294 295 5
E 295 296 5
E 296 297 5
E 297 298 5
E 298 299 5
E 269 300 13
E 270 301 13
E 271 302 13
E 272 303 13
E 273 304 13
E 274 305 13
E 275 306 13
E 276 307 13
E 277 308 13
E 278 309 13
E 279 310 13
E 280 311 13
E 281 312 13
E 282 313 13
E 283 314 13
E 284 315 13
E 285 316 13
E 286 317 13
E 287 318 13
E 288 319 13
E 289 320 13
E 290 321 13
E 291 322 13
E 292 323 13
E 293 324 13
E 294 325 13
E 295 326 13
E 296 327 13
E 297 328 13
E 298 329 13
E 299 330 13
E 300 301 5
E 301 302 5
E 302 303 5
E 303 304 5
E 304 305 5
E 305 306 5
E 306 307 5
E 307 308 5
E 308 309 5
E 309 310 5
E 311 312 5
E 312 313 5
E 314 315 5
E 315 316 5
E 316 317 5
E 317 318 5
E 318 319 5
E 319 320 5
E 320 321 5
E 321 322 5
E 322 323 5
E 323 324 5
E 324 325 5
E 325 326 5
E 326 327 5
E 327 328 5
E 328 329 5
E 329 330 5
E 301 332 13
E 302 333 13
E 303 334 13
E 304 335 13
E 305 336 13
E 306 337 13
E 307 338 13
E 308 339 13
E 309 340 13
E 310 341 13
E 311 343 13
E 312 344 13
E 313 345 13
E 314 347 13
E 315 348 13
E 316 349 13
E 317 350 13
E 318 351 13
E 319 352 13
E 323 353 13
E 324 354 13
E 325 355 13
E 329 356 13
E 330 357 13
E 331 332 5
E 332 333 5
E 333 334 5
E 334 335 5
E 335 336 5
E 336 337 5
E 337 338 5
E 338 339 5
E 339 340 5
E 340 341 5
E 341 342 5
E 342 343 5
E 343 344 5
E 344 345 5
E 345 346 5
E 346 347 5
E 347 348 5
E 348 349 5
E 349 350 5
E 350 351 5
E 351 352 5
E 353 354 5
E 354 355 5
E 356 357 5
E 331 358 13
E 332 359 13
E 333 360 13
E 334 361 13
E 335 362 13
E 336 363 13
E 337 364 13
E 338 365 13
E 339 366 13
E 340 367 13
E 341 368 13
E 342 369 13
E 343 370 13
E 345 372 13
E 346 373 13
E 347 374 13
E 348 375 13
E 349 376 13
E 351 377 13
E 352 378 13
E 353 382 13
E 355 383 13
E 356 387 13
E 357 388 13
E 358 359 5
E 359 360 5
E 360 361 5
E 361 362 5
E 362 363 5
E 363 364 5
E 364 365 5
E 365 366 5
E 366 367 5
E 367 368 5
E 368 369 5
E 369 370 5
E 370 371 5
E 371 372 5
E 372 373 5
E 373 374 5
E 374 375 5
E 375 376 5
E 377 378 5
E 378 379 5
E 379 380 5
E 380 381 5
E 381 382 5
E 383 384 5
E 384 385 5
E 385 386 5
E 386 387 5
E 387 388 5
E 358 389 13
E 359 390 13
E 360 391 13
E 361 392 13
E 362 393 13
E 363 394 13
E 364 395 13
E 366 396 13
E 367 397 13
E 368 398 13
E 369 399 13
E 372 402 13
E 373 403 13
E 374 404 13
E 375 405 13
E 376 406 13
E 377 407 13
E 378 408 13
E 379 409 13
E 380 410 13
E 381 411 13
E 382 412 13
E 383 413 13
E 384 414 13
E 385 415 13
E 386 416 13
E 387 417 13
E 389 390 5
E 390 391 5
E 391 392 5
E 392 393 5
E 393 394 5
E 394 395 5
E 396 397 5
E 397 398 5
E 398 399 5
E 399 400 5
E 400 401 5
E 401 402 5
E 402 403 5
E 403 404 5
E 404 405 5
E 405 406 5
E 407 408 5
E 408 409 5
E 409 410 5
E 410 411 5
E 411 412 5
E 413 414 5
E 414 415 5
E 415 416 5
E 416 417 5
E 417 418 5
E 389 419 13
E 390 420 13
E 391 421 13
E 392 422 13
E 393 423 13
E 394 424 13
E 395 425 13
E 396 426 13
E 398 427 13
E 399 428 13
E 400 429 13
E 401 430 13
E 404 433 13
E 405 434 13
E 406 435 13
E 407 437 13
E 410 440 13
E 411 441 13
E 412 442 13
E 413 444 13
E 414 445 13
E 415 446 13
E 416 447 13
E 417 448 13
E 419 420 5
E 420 421 5
E 421 422 5
E 422 423 5
E 423 424 5
E 424 425 5
E 427 428 5
E 428 429 5
E 429 430 5
E 430 431 5
E 431 432 5
E 432 433 5
E 433 434 5
E 434 435 5
E 435 436 5
E 436 437 5
E 437 438 5
E 438 439 5
E 439 440 5
E 440 441 5
E 441 442 5
E 442 443 5
E 443 444 5
E 444 445 5
E 445 446 5
E 446 447 5
E 447 448 5
E 419 449 13
E 420 450 13
E 421 451 13
E 422 452 13
E 423 453 13
E 424 454 13
E 425 455 13
E 426 457 13
E 427 458 13
E 428 459 13
E 430 461 13
E 431 462 13
E 433 464 13
E 434 465 13
E 435 466 13
E 436 467 13
E 437 468 13
E 438 469 13
E 439 470 13
E 440 471 13
E 441 472 13
E 442 473 13
E 443 474 13
E 444 475 13
E 445 476 13
E 446 477 13
E 448 478 13
E 449 450 5
E 450 451 5
E 451 452 5
E 452 453 5
E 453 454 5
E 454 455 5
E 455 456 5
E 456 457 5
E 458 459 5
E 459 460 5
E 460 461 5
E 461 462 5
E 462 463 5
E 463 464 5
E 464 465 5
E 465 466 5
E 466 467 5
E 467 468 5
E 468 469 5
E 469 470 5
E 470 471 5
E 471 472 5
E 472 473 5
E 473 474 5
E 474 475 5
E 475 476 5
E 476 477 5
E 449 479 13
E 451 480 13
E 452 481 13
E 453 482 13
E 454 483 13
E 455 484 13
E 456 485 13
E 457 486 13
E 458 488 13
E 459 489 13
E 460 490 13
E 461 491 13
E 462 492 13
E 463 493 13
E 464 494 13
E 465 495 13
E 468 498 13
E 469 499 13
E 470 500 13
E 471 501 13
E 472 502 13
E 473 503 13
E 474 504 13
E 475 505 13
E 476 506 13
E 477 507 13
E 478 508 13
E 480 481 5
E 481 482 5
E 482 483 5
E 483 484 5
E 484 485 5
E 485 486 5
E 486 487 5
E 487 488 5
E 488 489 5
E 489 490 5
E 490 491 5
E 491 492 5
E 492 493 5
E 493 494 5
E 494 495 5
E 495 496 5
E 496 497 5
E 497 498 5
E 498 499 5
E 499 500 5
E 500 501 5
E 501 502 5
E 502 503 5
E 503 504 5
E 504 505 5
E 505 506 5
E 506 507 5
E 508 509 5
E 479 510 13
E 480 511 13
E 481 512 13
E 482 513 13
E 483 514 13
E 484 515 13
E 485 516 13
E 486 517 13
E 487 518 13
E 488 519 13
E 489 520 13
E 491 521 13
E 492 522 13
E 493 523 13
E 494 524 13
E 495 525 13
E 498 528 13
E 499 529 13
E 500 530 13
E 501 531 13
E 502 532 13
E 503 533 13
E 504 534 13
E 505 535 13
E 506 536 13
E 507 537 13
E 508 539 13
E 509 540 13
E 511 512 5
E 512 513 5
E 513 514 5
E 514 515 5
E 515 516 5
E 516 517 5
E 517 518 5
E 518 519 5
E 519 520 5
E 521 522 5
E 522 523 5
E 523 524 5
E 524 525 5
E 525 526 5
E 526 527 5
E 527 528 5
E 528 529 5
E 529 530 5
E 530 531 5
E 531 532 5
E 532 533 5
E 533 534 5
E 534 535 5
E 535 536 5
E 536 537 5
E 537 538 5
E 538 539 5
E 539 540 5
E 510 541 13
E 511 543 13
E 512 544 13
E 514 545 13
E 515 546 13
E 516 547 13
E 517 548 13
E 518 549 13
E 519 550 13
E 520 551 13
E 521 552 13
E 522 553 13
E 523 554 13
E 524 555 13
E 525 556 13
E 526 557 13
E 527 558 13
E 528 559 13
E 529 560 13
E 530 561 13
E 531 562 13
E 532 563 13
E 533 564 13
E 534 565 13
E 535 566 13
E 537 567 13
E 538 568 13
E 539 569 13
E 541 542 5
E 542 543 5
E 543 544 5
E 545 546 5
E 546 547 5
E 547 548 5
E 548 549 5
E 549 550 5
E 550 551 5
E 552 553 5
E 553 554 5
E 554 555 5
E 555 556 5
E 556 557 5
E 557 558 5
E 558 559 5
E 559 560 5
E 560 561 5
E 561 562 5
E 562 563 5
E 563 564 5
E 564 565 5
E 565 566 5
E 567 568 5
E 568 569 5
E 569 570 5
E 541 571 13
E 542 572 13
E 543 573 13
E 544 574 13
E 545 575 13
E 548 578 13
E 549 579 13
E 550 580 13
E 551 581 13
E 552 583 13
E 553 584 13
E 554 585 13
E 555 586 13
E 556 587 13
E 557 588 13
E 558 589 13
E 559 590 13
E 560 591 13
E 561 592 13
E 562 593 13
E 563 594 13
E 565 595 13
E 566 596 13
E 567 597 13
E 568 598 13
E 569 599 13
E 570 600 13
E 571 572 5
E 572 573 5
E 573 574 5
E 575 576 5
E 576 577 5
E 577 578 5
E 578 579 5
E 579 580 5
E 580 581 5
E 581 582 5
E 582 583 5
E 583 584 5
E 584 585 5
E 585 586 5
E 586 587 5
E 587 588 5
E 588 589 5
E 589 590 5
E 590 591 5
E 591 592 5
E 592 593 5
E 593 594 5
E 595 596 5
E 597 598 5
E 598 599 5
E 599 600 5
E 571 601 13
E 572 602 13
E 573 603 13
E 574 604 13
E 575 606 13
E 576 607 13
E 577 608 13
E 578 609 13
E 579 610 13
E 581 612 13
E 582 613 13
E 583 614 13
E 584 615 13
E 585 616 13
E 586 617 13
E 587 618 13
E 588 619 13
E 589 620 13
E 590 621 13
E 591 622 13
E 592 623 13
E 593 624 13
E 594 625 13
E 595 626 13
E 596 627 13
E 597 629 13
E 598 630 13
E 599 631 13
E 600 632 13
E 601 602 5
E 602 603 5
E 603 604 5
E 604 605 5
E 605 606 5
E 606 607 5
E 607 608 5
E 608 609 5
E 609 610 5
E 610 611 5
E 611 612 5
E 612 613 5
E 613 614 5
E 614 615 5
E 615 616 5
E 616 617 5
E 617 618 5
E 618 619 5
E 619 620 5
E 620 621 5
E 621 622 5
E 622 623 5
E 623 624 5
E 624 625 5
E 626 627 5
E 627 628 5
E 628 629 5
E 629 630 5
E 630 631 5
E 631 632 5
END

SECTION Terminals
Terminals 10
T 6
T 102
T 160
T 211
T 350
T 365
T 447
T 450
T 490
T 513
END

EOF
